\ENCODING=ISO-8859-1
\Problem name: ilog.cplex

Minimize
 obj: 649 y_0_0 + 31 x_0_0 + 685 y_0_1 + 27 x_0_1 + 538 y_0_2 + 28 x_0_2
      + 791 y_0_3 + 10 x_0_3 + 613 y_0_4 + 7 x_0_4 + 205 y_0_5 + 26 x_0_5
      + 467 y_0_6 + 30 x_0_6 + 798 y_1_0 + 15 x_1_0 + 211 y_1_1 + 19 x_1_1
      + 701 y_1_2 + 17 x_1_2 + 506 y_1_3 + 7 x_1_3 + 431 y_1_4 + 22 x_1_4
      + 907 y_1_5 + 17 x_1_5 + 945 y_1_6 + 16 x_1_6 + 687 y_2_0 + 21 x_2_0
      + 261 y_2_1 + 17 x_2_1 + 444 y_2_2 + 19 x_2_2 + 264 y_2_3 + 29 x_2_3
      + 443 y_2_4 + 27 x_2_4 + 946 y_2_5 + 22 x_2_5 + 372 y_2_6 + 13 x_2_6
      + 335 y_3_0 + 9 x_3_0 + 385 y_3_1 + 19 x_3_1 + 967 y_3_2 + 7 x_3_2
      + 263 y_3_3 + 15 x_3_3 + 423 y_3_4 + 20 x_3_4 + 592 y_3_5 + 17 x_3_5
      + 939 y_3_6 + 22 x_3_6 + 819 y_4_0 + 19 x_4_0 + 340 y_4_1 + 7 x_4_1
      + 233 y_4_2 + 18 x_4_2 + 889 y_4_3 + 10 x_4_3 + 211 y_4_4 + 12 x_4_4
      + 854 y_4_5 + 27 x_4_5 + 823 y_4_6 + 23 x_4_6 + 307 y_5_0 + 8 x_5_0
      + 620 y_5_1 + 16 x_5_1 + 845 y_5_2 + 10 x_5_2 + 919 y_5_3 + 10 x_5_3
      + 223 y_5_4 + 11 x_5_4 + 854 y_5_5 + 13 x_5_5 + 656 y_5_6 + 15 x_5_6
      + 560 y_6_0 + 14 x_6_0 + 959 y_6_1 + 32 x_6_1 + 782 y_6_2 + 22 x_6_2
      + 417 y_6_3 + 10 x_6_3 + 358 y_6_4 + 22 x_6_4 + 589 y_6_5 + 15 x_6_5
      + 383 y_6_6 + 19 x_6_6 + 375 y_7_0 + 30 x_7_0 + 791 y_7_1 + 27 x_7_1
      + 720 y_7_2 + 24 x_7_2 + 416 y_7_3 + 26 x_7_3 + 251 y_7_4 + 25 x_7_4
      + 887 y_7_5 + 15 x_7_5 + 235 y_7_6 + 19 x_7_6
Subject To
 Supply_0: x_0_0 + x_0_1 + x_0_2 + x_0_3 + x_0_4 + x_0_5 + x_0_6 <= 20
 Supply_1: x_1_0 + x_1_1 + x_1_2 + x_1_3 + x_1_4 + x_1_5 + x_1_6 <= 20
 Supply_2: x_2_0 + x_2_1 + x_2_2 + x_2_3 + x_2_4 + x_2_5 + x_2_6 <= 20
 Supply_3: x_3_0 + x_3_1 + x_3_2 + x_3_3 + x_3_4 + x_3_5 + x_3_6 <= 18
 Supply_4: x_4_0 + x_4_1 + x_4_2 + x_4_3 + x_4_4 + x_4_5 + x_4_6 <= 18
 Supply_5: x_5_0 + x_5_1 + x_5_2 + x_5_3 + x_5_4 + x_5_5 + x_5_6 <= 17
 Supply_6: x_6_0 + x_6_1 + x_6_2 + x_6_3 + x_6_4 + x_6_5 + x_6_6 <= 17
 Supply_7: x_7_0 + x_7_1 + x_7_2 + x_7_3 + x_7_4 + x_7_5 + x_7_6 <= 10
 Demand_0: x_0_0 + x_1_0 + x_2_0 + x_3_0 + x_4_0 + x_5_0 + x_6_0 + x_7_0 >= 20
 Demand_1: x_0_1 + x_1_1 + x_2_1 + x_3_1 + x_4_1 + x_5_1 + x_6_1 + x_7_1 >= 19
 Demand_2: x_0_2 + x_1_2 + x_2_2 + x_3_2 + x_4_2 + x_5_2 + x_6_2 + x_7_2 >= 19
 Demand_3: x_0_3 + x_1_3 + x_2_3 + x_3_3 + x_4_3 + x_5_3 + x_6_3 + x_7_3 >= 18
 Demand_4: x_0_4 + x_1_4 + x_2_4 + x_3_4 + x_4_4 + x_5_4 + x_6_4 + x_7_4 >= 17
 Demand_5: x_0_5 + x_1_5 + x_2_5 + x_3_5 + x_4_5 + x_5_5 + x_6_5 + x_7_5 >= 16
 Demand_6: x_0_6 + x_1_6 + x_2_6 + x_3_6 + x_4_6 + x_5_6 + x_6_6 + x_7_6 >= 16
 c16:      - 20 y_0_0 + x_0_0 <= 0
 c17:      - 19 y_0_1 + x_0_1 <= 0
 c18:      - 19 y_0_2 + x_0_2 <= 0
 c19:      - 18 y_0_3 + x_0_3 <= 0
 c20:      - 17 y_0_4 + x_0_4 <= 0
 c21:      - 16 y_0_5 + x_0_5 <= 0
 c22:      - 16 y_0_6 + x_0_6 <= 0
 c23:      - 20 y_1_0 + x_1_0 <= 0
 c24:      - 19 y_1_1 + x_1_1 <= 0
 c25:      - 19 y_1_2 + x_1_2 <= 0
 c26:      - 18 y_1_3 + x_1_3 <= 0
 c27:      - 17 y_1_4 + x_1_4 <= 0
 c28:      - 16 y_1_5 + x_1_5 <= 0
 c29:      - 16 y_1_6 + x_1_6 <= 0
 c30:      - 20 y_2_0 + x_2_0 <= 0
 c31:      - 19 y_2_1 + x_2_1 <= 0
 c32:      - 19 y_2_2 + x_2_2 <= 0
 c33:      - 18 y_2_3 + x_2_3 <= 0
 c34:      - 17 y_2_4 + x_2_4 <= 0
 c35:      - 16 y_2_5 + x_2_5 <= 0
 c36:      - 16 y_2_6 + x_2_6 <= 0
 c37:      - 18 y_3_0 + x_3_0 <= 0
 c38:      - 18 y_3_1 + x_3_1 <= 0
 c39:      - 18 y_3_2 + x_3_2 <= 0
 c40:      - 18 y_3_3 + x_3_3 <= 0
 c41:      - 17 y_3_4 + x_3_4 <= 0
 c42:      - 16 y_3_5 + x_3_5 <= 0
 c43:      - 16 y_3_6 + x_3_6 <= 0
 c44:      - 18 y_4_0 + x_4_0 <= 0
 c45:      - 18 y_4_1 + x_4_1 <= 0
 c46:      - 18 y_4_2 + x_4_2 <= 0
 c47:      - 18 y_4_3 + x_4_3 <= 0
 c48:      - 17 y_4_4 + x_4_4 <= 0
 c49:      - 16 y_4_5 + x_4_5 <= 0
 c50:      - 16 y_4_6 + x_4_6 <= 0
 c51:      - 17 y_5_0 + x_5_0 <= 0
 c52:      - 17 y_5_1 + x_5_1 <= 0
 c53:      - 17 y_5_2 + x_5_2 <= 0
 c54:      - 17 y_5_3 + x_5_3 <= 0
 c55:      - 17 y_5_4 + x_5_4 <= 0
 c56:      - 16 y_5_5 + x_5_5 <= 0
 c57:      - 16 y_5_6 + x_5_6 <= 0
 c58:      - 17 y_6_0 + x_6_0 <= 0
 c59:      - 17 y_6_1 + x_6_1 <= 0
 c60:      - 17 y_6_2 + x_6_2 <= 0
 c61:      - 17 y_6_3 + x_6_3 <= 0
 c62:      - 17 y_6_4 + x_6_4 <= 0
 c63:      - 16 y_6_5 + x_6_5 <= 0
 c64:      - 16 y_6_6 + x_6_6 <= 0
 c65:      - 10 y_7_0 + x_7_0 <= 0
 c66:      - 10 y_7_1 + x_7_1 <= 0
 c67:      - 10 y_7_2 + x_7_2 <= 0
 c68:      - 10 y_7_3 + x_7_3 <= 0
 c69:      - 10 y_7_4 + x_7_4 <= 0
 c70:      - 10 y_7_5 + x_7_5 <= 0
 c71:      - 10 y_7_6 + x_7_6 <= 0
Bounds
 0 <= y_0_0 <= 1
 0 <= x_0_0 <= 100000
 0 <= y_0_1 <= 1
 0 <= x_0_1 <= 100000
 0 <= y_0_2 <= 1
 0 <= x_0_2 <= 100000
 0 <= y_0_3 <= 1
 0 <= x_0_3 <= 100000
 0 <= y_0_4 <= 1
 0 <= x_0_4 <= 100000
 0 <= y_0_5 <= 1
 0 <= x_0_5 <= 100000
 0 <= y_0_6 <= 1
 0 <= x_0_6 <= 100000
 0 <= y_1_0 <= 1
 0 <= x_1_0 <= 100000
 0 <= y_1_1 <= 1
 0 <= x_1_1 <= 100000
 0 <= y_1_2 <= 1
 0 <= x_1_2 <= 100000
 0 <= y_1_3 <= 1
 0 <= x_1_3 <= 100000
 0 <= y_1_4 <= 1
 0 <= x_1_4 <= 100000
 0 <= y_1_5 <= 1
 0 <= x_1_5 <= 100000
 0 <= y_1_6 <= 1
 0 <= x_1_6 <= 100000
 0 <= y_2_0 <= 1
 0 <= x_2_0 <= 100000
 0 <= y_2_1 <= 1
 0 <= x_2_1 <= 100000
 0 <= y_2_2 <= 1
 0 <= x_2_2 <= 100000
 0 <= y_2_3 <= 1
 0 <= x_2_3 <= 100000
 0 <= y_2_4 <= 1
 0 <= x_2_4 <= 100000
 0 <= y_2_5 <= 1
 0 <= x_2_5 <= 100000
 0 <= y_2_6 <= 1
 0 <= x_2_6 <= 100000
 0 <= y_3_0 <= 1
 0 <= x_3_0 <= 100000
 0 <= y_3_1 <= 1
 0 <= x_3_1 <= 100000
 0 <= y_3_2 <= 1
 0 <= x_3_2 <= 100000
 0 <= y_3_3 <= 1
 0 <= x_3_3 <= 100000
 0 <= y_3_4 <= 1
 0 <= x_3_4 <= 100000
 0 <= y_3_5 <= 1
 0 <= x_3_5 <= 100000
 0 <= y_3_6 <= 1
 0 <= x_3_6 <= 100000
 0 <= y_4_0 <= 1
 0 <= x_4_0 <= 100000
 0 <= y_4_1 <= 1
 0 <= x_4_1 <= 100000
 0 <= y_4_2 <= 1
 0 <= x_4_2 <= 100000
 0 <= y_4_3 <= 1
 0 <= x_4_3 <= 100000
 0 <= y_4_4 <= 1
 0 <= x_4_4 <= 100000
 0 <= y_4_5 <= 1
 0 <= x_4_5 <= 100000
 0 <= y_4_6 <= 1
 0 <= x_4_6 <= 100000
 0 <= y_5_0 <= 1
 0 <= x_5_0 <= 100000
 0 <= y_5_1 <= 1
 0 <= x_5_1 <= 100000
 0 <= y_5_2 <= 1
 0 <= x_5_2 <= 100000
 0 <= y_5_3 <= 1
 0 <= x_5_3 <= 100000
 0 <= y_5_4 <= 1
 0 <= x_5_4 <= 100000
 0 <= y_5_5 <= 1
 0 <= x_5_5 <= 100000
 0 <= y_5_6 <= 1
 0 <= x_5_6 <= 100000
 0 <= y_6_0 <= 1
 0 <= x_6_0 <= 100000
 0 <= y_6_1 <= 1
 0 <= x_6_1 <= 100000
 0 <= y_6_2 <= 1
 0 <= x_6_2 <= 100000
 0 <= y_6_3 <= 1
 0 <= x_6_3 <= 100000
 0 <= y_6_4 <= 1
 0 <= x_6_4 <= 100000
 0 <= y_6_5 <= 1
 0 <= x_6_5 <= 100000
 0 <= y_6_6 <= 1
 0 <= x_6_6 <= 100000
 0 <= y_7_0 <= 1
 0 <= x_7_0 <= 100000
 0 <= y_7_1 <= 1
 0 <= x_7_1 <= 100000
 0 <= y_7_2 <= 1
 0 <= x_7_2 <= 100000
 0 <= y_7_3 <= 1
 0 <= x_7_3 <= 100000
 0 <= y_7_4 <= 1
 0 <= x_7_4 <= 100000
 0 <= y_7_5 <= 1
 0 <= x_7_5 <= 100000
 0 <= y_7_6 <= 1
 0 <= x_7_6 <= 100000
Generals
 y_0_0  y_0_1  y_0_2  y_0_3  y_0_4  y_0_5  y_0_6  y_1_0  y_1_1  y_1_2  y_1_3 
 y_1_4  y_1_5  y_1_6  y_2_0  y_2_1  y_2_2  y_2_3  y_2_4  y_2_5  y_2_6  y_3_0 
 y_3_1  y_3_2  y_3_3  y_3_4  y_3_5  y_3_6  y_4_0  y_4_1  y_4_2  y_4_3  y_4_4 
 y_4_5  y_4_6  y_5_0  y_5_1  y_5_2  y_5_3  y_5_4  y_5_5  y_5_6  y_6_0  y_6_1 
 y_6_2  y_6_3  y_6_4  y_6_5  y_6_6  y_7_0  y_7_1  y_7_2  y_7_3  y_7_4  y_7_5 
 y_7_6 
End
